
Gurobi 11.0.0 (linux64) logging started Thu Dec  5 15:06:08 2024

Set parameter LogFile to value "gurobi.log"
Set parameter InfUnbdInfo to value 1
Gurobi Optimizer version 11.0.0 build v11.0.0rc2 (linux64 - "Ubuntu 22.04.4 LTS")

CPU model: AMD EPYC 7V13 64-Core Processor, instruction set [SSE2|AVX|AVX2]
Thread count: 128 physical cores, 128 logical processors, using up to 32 threads

Optimize a model with 147 rows, 520 columns and 409 nonzeros
Model fingerprint: 0x46027eea
Model has 363 quadratic constraints
Model has 56 general constraints
Variable types: 106 continuous, 414 integer (0 binary)
Coefficient statistics:
  Matrix range     [1e+00, 2e+01]
  QMatrix range    [1e+00, 2e+02]
  QLMatrix range   [1e+00, 1e+00]
  Objective range  [1e+00, 1e+00]
  Bounds range     [1e+00, 2e+06]
  RHS range        [1e+00, 2e+06]
  QRHS range       [2e+02, 9e+03]
Using branch priorities (all 0).
Presolve added 137 rows and 77 columns
Presolve time: 0.01s
Presolved: 1243 rows, 1063 columns, 4703 nonzeros
Presolved model has 301 SOS constraint(s)
Presolved model has 105 bilinear constraint(s)
Warning: Model contains variables with very large bounds participating
         in product terms.
         Presolve was not able to compute smaller bounds for these variables.
         Consider bounding these variables or reformulating the model.


Solving non-convex MIQCP

Variable types: 297 continuous, 766 integer (264 binary)

Root relaxation: objective 4.639487e+01, 409 iterations, 0.00 seconds (0.00 work units)

    Nodes    |    Current Node    |     Objective Bounds      |     Work
 Expl Unexpl |  Obj  Depth IntInf | Incumbent    BestBd   Gap | It/Node Time

     0     0   46.39487    0  214          -   46.39487      -     -    0s
     0     0   46.40268    0  196          -   46.40268      -     -    0s
     0     0  145.17002    0  296          -  145.17002      -     -    0s
H    0     0                    1.348395e+07  146.04266   100%     -    0s
     0     0  146.04266    0  320 1.3484e+07  146.04266   100%     -    0s
     0     0  169.11708    0  346 1.3484e+07  169.11708   100%     -    0s
     0     0  171.97975    0  369 1.3484e+07  171.97975   100%     -    0s
     0     0  185.35291    0  344 1.3484e+07  185.35291   100%     -    0s
H    0     0                    1.348395e+07  185.90059   100%     -    0s
     0     0  185.90059    0  352 1.3484e+07  185.90059   100%     -    0s
     0     0  186.22830    0  425 1.3484e+07  186.22830   100%     -    0s
H    0     0                    6780971.1874  186.43025   100%     -    0s
     0     0  210.33569    0  375 6780971.19  210.33569   100%     -    0s
     0     0  284.69095    0  423 6780971.19  284.69095   100%     -    0s
     0     0  284.69095    0  269 6780971.19  284.69095   100%     -    0s
H    0     0                    5486627.1872  284.69095   100%     -    0s
     0     0  631.36045    0  367 5486627.19  631.36045   100%     -    0s
H    0     0                    5484014.8750  631.36045   100%     -    0s
     0     0 2205.76268    0  369 5484014.87 2205.76268   100%     -    0s
     0     0 2205.76268    0  233 5484014.87 2205.76268   100%     -    0s
     0     0 2205.76268    0  222 5484014.87 2205.76268   100%     -    0s
     0     0 2205.76268    0  277 5484014.87 2205.76268   100%     -    0s
H    0     0                    3784370.9555 2205.76268   100%     -    0s
     0     0 2205.76268    0  269 3784370.96 2205.76268   100%     -    0s
     0     0 2246.90326    0  153 3784370.96 2246.90326   100%     -    0s
     0     0 2246.90326    0  302 3784370.96 2246.90326   100%     -    0s
     0     0 2587.91965    0  145 3784370.96 2587.91965   100%     -    0s
     0     0 2587.91965    0  305 3784370.96 2587.91965   100%     -    0s
     0     0 2619.41431    0  331 3784370.96 2619.41431   100%     -    0s
     0     0 2619.41431    0  288 3784370.96 2619.41431   100%     -    0s
H    0     0                    3784010.0609 2619.41431   100%     -    0s
     0     0 2619.41431    0  272 3784010.06 2619.41431   100%     -    0s
     0     0 2619.41431    0  331 3784010.06 2619.41431   100%     -    0s
     0     0 2619.41431    0  302 3784010.06 2619.41431   100%     -    0s
     0     0 2619.41431    0  315 3784010.06 2619.41431   100%     -    0s
     0     0 3391.05618    0  204 3784010.06 3391.05618   100%     -    0s
     0     0 3636.52257    0  218 3784010.06 3636.52257   100%     -    0s
     0     0 3970.51939    0  138 3784010.06 3970.51939   100%     -    1s
     0     0 4086.93382    0  252 3784010.06 4086.93382   100%     -    1s
     0     0 4298.20730    0  267 3784010.06 4298.20730   100%     -    1s
     0     0 4403.31410    0  203 3784010.06 4403.31410   100%     -    1s
     0     0 4484.82349    0  220 3784010.06 4484.82349   100%     -    1s
     0     0 4625.79658    0  215 3784010.06 4625.79658   100%     -    1s
     0     0 4789.05307    0  258 3784010.06 4789.05307   100%     -    1s
     0     0 4873.26416    0  246 3784010.06 4873.26416   100%     -    1s
     0     0 4930.24555    0  244 3784010.06 4930.24555   100%     -    1s
     0     0 5128.84846    0  235 3784010.06 5128.84846   100%     -    1s
     0     0 5162.11712    0  226 3784010.06 5162.11712   100%     -    1s
     0     0 5172.08673    0  212 3784010.06 5172.08673   100%     -    1s
     0     0 5234.42890    0  209 3784010.06 5234.42890   100%     -    1s
     0     0 5323.25120    0  223 3784010.06 5323.25120   100%     -    1s
     0     0 5430.78333    0  222 3784010.06 5430.78333   100%     -    1s
     0     0 5524.34655    0  226 3784010.06 5524.34655   100%     -    1s
     0     0 5732.60535    0  325 3784010.06 5732.60535   100%     -    1s
     0     0 5873.24266    0  256 3784010.06 5873.24266   100%     -    1s
     0     0 5964.12154    0  250 3784010.06 5964.12154   100%     -    1s
     0     0 5999.36192    0  288 3784010.06 5999.36192   100%     -    1s
     0     0 6061.31325    0  292 3784010.06 6061.31325   100%     -    1s
     0     0 6061.31325    0  258 3784010.06 6061.31325   100%     -    1s
     0     0 6173.42191    0  276 3784010.06 6173.42191   100%     -    1s
     0     0 6339.91424    0  237 3784010.06 6339.91424   100%     -    1s
     0     0 6360.98217    0  220 3784010.06 6360.98217   100%     -    1s
     0     0 6559.09127    0  249 3784010.06 6559.09127   100%     -    1s
     0     0 6693.49768    0  256 3784010.06 6693.49768   100%     -    1s
     0     0 6707.28053    0  274 3784010.06 6707.28053   100%     -    1s
     0     0 6787.45110    0  275 3784010.06 6787.45110   100%     -    1s
     0     0 6787.45110    0  267 3784010.06 6787.45110   100%     -    1s
     0     0 6822.96674    0  274 3784010.06 6822.96674   100%     -    1s
     0     0 6876.00462    0  248 3784010.06 6876.00462   100%     -    1s
     0     0 7038.06075    0  222 3784010.06 7038.06075   100%     -    1s
     0     0 7177.68756    0  228 3784010.06 7177.68756   100%     -    1s
     0     0 7304.44929    0  229 3784010.06 7304.44929   100%     -    1s
     0     0 7351.56861    0  212 3784010.06 7351.56861   100%     -    1s
     0     0 7470.42909    0  214 3784010.06 7470.42909   100%     -    1s
     0     0 7543.53313    0  222 3784010.06 7543.53313   100%     -    1s
     0     0 7667.95723    0  215 3784010.06 7667.95723   100%     -    1s
     0     0 7769.03824    0  223 3784010.06 7769.03824   100%     -    1s
     0     0 7798.95470    0  222 3784010.06 7798.95470   100%     -    1s
     0     0 7808.80568    0  224 3784010.06 7808.80568   100%     -    1s
     0     0 7916.45743    0  229 3784010.06 7916.45743   100%     -    1s
     0     0 7923.83771    0  229 3784010.06 7923.83771   100%     -    1s
     0     0 8159.27621    0  211 3784010.06 8159.27621   100%     -    1s
     0     0 8199.01883    0  229 3784010.06 8199.01883   100%     -    1s
     0     0 8296.06411    0  237 3784010.06 8296.06411   100%     -    1s
     0     0 8318.95370    0  280 3784010.06 8318.95370   100%     -    1s
     0     0 8434.08371    0  253 3784010.06 8434.08371   100%     -    1s
H    0     0                    3752505.0609 8434.08371   100%     -    1s
     0     0 8465.83134    0  254 3752505.06 8465.83134   100%     -    1s
     0     0 8693.88688    0  257 3752505.06 8693.88688   100%     -    1s
     0     0 8808.32277    0  252 3752505.06 8808.32277   100%     -    1s
     0     0 8827.76647    0  271 3752505.06 8827.76647   100%     -    1s
     0     0 8845.60535    0  255 3752505.06 8845.60535   100%     -    1s
     0     0 8927.82097    0  232 3752505.06 8927.82097   100%     -    2s
     0     0 9048.38866    0  231 3752505.06 9048.38866   100%     -    2s
     0     0 9237.14769    0  263 3752505.06 9237.14769   100%     -    2s
     0     0 9252.28508    0  248 3752505.06 9252.28508   100%     -    2s
     0     0 9490.47407    0  166 3752505.06 9490.47407   100%     -    2s
     0     0 9516.98068    0  205 3752505.06 9516.98068   100%     -    2s
     0     0 9641.05596    0  243 3752505.06 9641.05596   100%     -    2s
     0     0 9646.01363    0  197 3752505.06 9646.01363   100%     -    2s
     0     0 9745.77707    0  214 3752505.06 9745.77707   100%     -    2s
H    0     0                    115274.50347 9745.92261  91.5%     -    2s
     0     0 9745.92261    0  158 115274.503 9745.92261  91.5%     -    2s
     0     0 9858.56457    0  291 115274.503 9858.56457  91.4%     -    2s
     0     0 9875.88185    0  273 115274.503 9875.88185  91.4%     -    2s
     0     0 10008.7191    0  311 115274.503 10008.7191  91.3%     -    2s
     0     0 10069.1318    0  312 115274.503 10069.1318  91.3%     -    2s
     0     0 10079.2007    0  313 115274.503 10079.2007  91.3%     -    2s
     0     0 10141.7422    0  289 115274.503 10141.7422  91.2%     -    2s
     0     0 10179.1080    0  283 115274.503 10179.1080  91.2%     -    2s
     0     0 10316.6384    0  281 115274.503 10316.6384  91.1%     -    2s
     0     0 10374.7985    0  243 115274.503 10374.7985  91.0%     -    2s
     0     0 10517.3894    0  233 115274.503 10517.3894  90.9%     -    2s
     0     0 10554.5172    0  213 115274.503 10554.5172  90.8%     -    2s
     0     0 10610.6959    0  200 115274.503 10610.6959  90.8%     -    2s
     0     0 10779.4688    0  238 115274.503 10779.4688  90.6%     -    2s
     0     0 10826.9936    0  253 115274.503 10826.9936  90.6%     -    2s
     0     0 10881.8421    0  256 115274.503 10881.8421  90.6%     -    2s
     0     0 10885.0245    0  216 115274.503 10885.0245  90.6%     -    2s
     0     0 10969.9512    0  226 115274.503 10969.9512  90.5%     -    2s
     0     0 10969.9512    0  214 115274.503 10969.9512  90.5%     -    2s
     0     0 11014.9329    0  225 115274.503 11014.9329  90.4%     -    2s
     0     0 11018.0659    0  235 115274.503 11018.0659  90.4%     -    2s
     0     0 11060.3296    0  232 115274.503 11060.3296  90.4%     -    2s
     0     0 11102.4942    0  204 115274.503 11102.4942  90.4%     -    2s
     0     0 11165.5451    0  127 115274.503 11165.5451  90.3%     -    2s
     0     0 11190.8243    0  212 115274.503 11190.8243  90.3%     -    2s
     0     0 11268.1963    0  201 115274.503 11268.1963  90.2%     -    2s
     0     0 11268.1963    0  204 115274.503 11268.1963  90.2%     -    2s
     0     0 11298.9556    0  220 115274.503 11298.9556  90.2%     -    2s
     0     0 11324.7651    0  220 115274.503 11324.7651  90.2%     -    2s
     0     0 11446.5853    0  220 115274.503 11446.5853  90.1%     -    2s
     0     0 12052.5646    0  112 115274.503 12052.5646  89.5%     -    3s
     0     0 12052.5646    0  110 115274.503 12052.5646  89.5%     -    4s
     0     0 12052.5646    0  155 115274.503 12052.5646  89.5%     -    4s
     0     0 12052.5646    0  161 115274.503 12052.5646  89.5%     -    5s
     0     0 12052.5646    0  230 115274.503 12052.5646  89.5%     -    5s
     0     0 12052.5646    0  190 115274.503 12052.5646  89.5%     -    6s
     0     0 12052.5646    0  188 115274.503 12052.5646  89.5%     -    6s
     0     0 12052.5646    0   81 115274.503 12052.5646  89.5%     -    7s
     0     2 12052.5646    0   81 115274.503 12052.5646  89.5%     -    8s
    88    96 12052.5646    7  164 115274.503 12052.5646  89.5%  85.4   10s
H  259   247                    99944.124426 12052.5646  87.9%  49.2   11s
H 1102   789                    57381.812500 12052.5646  79.0%  35.3   13s
H 1246   789                    51101.288188 12052.5646  76.4%  32.3   13s
H 1869   953                    41535.821038 12052.5646  71.0%  34.4   14s
H 2033  1010                    41517.821038 12052.5646  71.0%  34.0   14s
H 2059  1010                    41501.743951 12052.5646  71.0%  33.7   14s
H 2074  1010                    41318.259127 12052.5646  70.8%  33.6   14s
  2310  1176 35858.2019   33   25 41318.2591 12052.5646  70.8%  33.6   15s
H 2343  1176                    39017.259127 12052.5646  69.1%  33.7   15s
H 2446  1176                    35982.437500 12052.5646  66.5%  33.3   15s
H 2460  1176                    33616.500000 12052.5646  64.1%  33.2   15s
H 2684  1202                    33551.446038 12052.5646  64.1%  32.3   15s
* 3535  1428              59    32243.118383 12052.5646  62.6%  30.6   16s
H 4290  1609                    30840.593252 12052.5646  60.9%  29.1   17s
H 5470  1715                    30726.684974 12052.5646  60.8%  27.3   18s
H 5657  1715                    30193.475902 12052.5646  60.1%  27.2   18s
* 6480  1757              34    30027.427029 19014.6717  36.7%  26.6   18s
* 6629  1757              43    28034.949750 19014.6717  32.2%  26.3   18s
  8490   253 infeasible   26      28034.9497 20572.6442  26.6%  22.9   20s

Cutting planes:
  Gomory: 10
  Cover: 16
  Implied bound: 309
  Clique: 2
  MIR: 66
  StrongCG: 1
  Flow cover: 22
  Inf proof: 12
  Zero half: 1
  Mod-K: 1
  Network: 1
  RLT: 72
  Relax-and-lift: 48

Explored 9669 nodes (219738 simplex iterations) in 21.37 seconds (1.93 work units)
Thread count was 32 (of 128 available processors)

Solution count 10: 28034.9 30027.4 30193.5 ... 39017.3

Optimal solution found (tolerance 1.00e-04)
Warning: max constraint violation (1.3601e-03) exceeds tolerance
Warning: max general constraint violation (1.3601e-03) exceeds tolerance
  Piecewise linearization of function constraints often causes big violation.
  Try to adjust the settings of the related parameters, such as FuncPieces.
Best objective 2.803494974986e+04, best bound 2.803494974986e+04, gap 0.0000%
